RT is False
Default write of storage_offers_DA.csv just to have a file (but constraint should be inactive)
Reading model...
...model read.
creating competitive generators file...
...competitive generators recorded.
Loading data...
.. day-ahead data with real-time VRE data read.
Compiling instance...
...instance created.
Creating Offer Mitigation (model will solve as dispatch if TRUE)...
Solving...

Welcome to IBM(R) ILOG(R) CPLEX(R) Interactive Optimizer 12.9.0.0
  with Simplex, Mixed Integer & Barrier Optimizers
5725-A06 5725-A29 5724-Y48 5724-Y49 5724-Y54 5724-Y55 5655-Y21
Copyright IBM Corp. 1988, 2019.  All Rights Reserved.

Type 'help' for a list of available commands.
Type 'help' followed by a command name for more
information on commands.

CPLEX> Logfile 'cplex.log' closed.
Logfile 'C:\Users\llavin\Desktop\test919\logs\tmp9r8xj11w.cplex.log' open.
CPLEX> New value for parallel optimization mode: -1
CPLEX> New value for mixed integer optimality gap tolerance: 0.01
CPLEX> New value for integrality tolerance: 1e-09
CPLEX> New value for feasibility tolerance: 0.01
CPLEX> New value for deterministic time limit in ticks: 75000
CPLEX> Problem 'C:\Users\llavin\Desktop\test919\logs\tmp9yu314u2.pyomo.lp' read.
Read time = 0.06 sec. (3.04 ticks)
CPLEX> Problem name         : C:\Users\llavin\Desktop\test919\logs\tmp9yu314u2.pyomo.lp
Objective sense      : Minimize
Variables            :   26081  [Nneg: 1,  Box: 21616,  Free: 4464]
Objective nonzeros   :    2496
Linear constraints   :   27515  [Less: 14006,  Greater: 4416,  Equal: 9093]
  Nonzeros           :   89267
  RHS nonzeros       :   12271

Variables            : Min LB: -5000.000        Max UB: 1000000.       
Objective nonzeros   : Min   : 15.73158         Max   : 124.0997       
Linear constraints   :
  Nonzeros           : Min   : 0.8500000        Max   : 3000.000       
  RHS nonzeros       : Min   : 0.01666667       Max   : 5000.000       
CPLEX> CPXPARAM_Parallel                                -1
CPXPARAM_Simplex_Tolerances_Feasibility          0.01
CPXPARAM_DetTimeLimit                            75000
CPXPARAM_MIP_Tolerances_MIPGap                   0.01
CPXPARAM_MIP_Tolerances_Integrality              1.0000000000000001e-09
Parallel mode: opportunistic, using up to 32 threads for concurrent optimization.
Tried aggregator 1 time.
LP Presolve eliminated 21353 rows and 15462 columns.
Aggregator did 771 substitutions.
Reduced LP has 5391 rows, 9848 columns, and 31811 nonzeros.
Presolve time = 0.06 sec. (30.44 ticks)
Symmetry aggregator did 5563 additional substitutions.

Iteration log . . .
Iteration:     1   Dual objective     =             0.000000
Perturbation started.
Iteration:   101   Dual objective     =             0.000000
Iteration:   334   Dual objective     =             1.147464
Iteration:   581   Dual objective     =             1.661614
Iteration:   839   Dual objective     =             1.800808
Iteration:  1038   Dual objective     =             1.911838
Iteration:  1309   Dual objective     =             1.957509
Iteration:  1561   Dual objective     =             1.988093
Iteration:  1785   Dual objective     =             2.008481
Iteration:  1997   Dual objective     =         19189.472045
Iteration:  2172   Dual objective     =         62916.864492
Iteration:  2367   Dual objective     =         84492.527421
Iteration:  2639   Dual objective     =         96731.680383
Iteration:  3023   Dual objective     =         98772.378320
Removing perturbation.
Dual superbasis not built.
Using devex.

Primal simplex solved model.


Primal simplex - Optimal:  Objective =  9.8770304985e+04
Solution time =    0.17 sec.  Iterations = 1684 (1156)
Deterministic time = 80.51 ticks  (468.11 ticks/sec)

CPLEX> Solution written to file 'C:\Users\llavin\Desktop\test919\logs\tmpnf5h260z.cplex.sol'.
CPLEX> Exporting results... 
...storage offer mitigation file created
Converting model to MPEC...
...converted
NOTE: initial MIP solve with only storage competitive to get feasible solution
Solving...

Welcome to IBM(R) ILOG(R) CPLEX(R) Interactive Optimizer 12.9.0.0
  with Simplex, Mixed Integer & Barrier Optimizers
5725-A06 5725-A29 5724-Y48 5724-Y49 5724-Y54 5724-Y55 5655-Y21
Copyright IBM Corp. 1988, 2019.  All Rights Reserved.

Type 'help' for a list of available commands.
Type 'help' followed by a command name for more
information on commands.

CPLEX> Logfile 'cplex.log' closed.
Logfile 'C:\Users\llavin\Desktop\test919\logs\tmpag_x29it.cplex.log' open.
CPLEX> New value for parallel optimization mode: -1
CPLEX> New value for mixed integer optimality gap tolerance: 0.01
CPLEX> New value for integrality tolerance: 1e-09
CPLEX> New value for feasibility tolerance: 0.01
CPLEX> New value for deterministic time limit in ticks: 75000
CPLEX> Problem 'C:\Users\llavin\Desktop\test919\logs\tmp9ux__bbv.pyomo.lp' read.
Read time = 0.23 sec. (14.78 ticks)
CPLEX> Problem name         : C:\Users\llavin\Desktop\test919\logs\tmp9ux__bbv.pyomo.lp
Objective sense      : Maximize
Variables            :   53805  [Nneg: 1,  Box: 22000,  Free: 4464,
                                 Binary: 27340]
Objective nonzeros   :    8980
Linear constraints   :  123205  [Less: 41346,  Greater: 59096,  Equal: 22763]
  Nonzeros           :  291801
  RHS nonzeros       :   67431

Variables            : Min LB: -5000.000        Max UB: 1000000.       
Objective nonzeros   : Min   : 0.01666667       Max   : 834.5500       
Linear constraints   :
  Nonzeros           : Min   : 0.01666667       Max   : 1000000.       
  RHS nonzeros       : Min   : 0.01666667       Max   : 1000000.       
CPLEX> CPXPARAM_Parallel                                -1
CPXPARAM_Simplex_Tolerances_Feasibility          0.01
CPXPARAM_DetTimeLimit                            75000
CPXPARAM_MIP_Tolerances_MIPGap                   0.01
CPXPARAM_MIP_Tolerances_Integrality              1.0000000000000001e-09
Tried aggregator 3 times.
MIP Presolve eliminated 88618 rows and 18918 columns.
MIP Presolve added 3386 rows and 0 columns.
MIP Presolve modified 24884 coefficients.
Aggregator did 13010 substitutions.
Reduced MIP has 24963 rows, 21321 columns, and 71209 nonzeros.
Reduced MIP has 8416 binaries, 0 generals, 0 SOSs, and 0 indicators.
Presolve time = 0.31 sec. (173.86 ticks)
Probing fixed 416 vars, tightened 2856 bounds.
Probing time = 1.20 sec. (893.47 ticks)
Tried aggregator 2 times.
MIP Presolve eliminated 937 rows and 834 columns.
MIP Presolve modified 2192 coefficients.
Aggregator did 30 substitutions.
Reduced MIP has 23996 rows, 20457 columns, and 68401 nonzeros.
Reduced MIP has 8000 binaries, 0 generals, 0 SOSs, and 0 indicators.
Presolve time = 0.11 sec. (68.59 ticks)
Probing time = 0.03 sec. (16.66 ticks)
Clique table members: 6274.
MIP emphasis: balance optimality and feasibility.
MIP search method: dynamic search.
Parallel mode: opportunistic, using up to 32 threads.
Root relaxation solution time = 0.39 sec. (289.71 ticks)

        Nodes                                         Cuts/
   Node  Left     Objective  IInf  Best Integer    Best Bound    ItCnt     Gap

      0     0     7723.6792  1627                   7723.6792     6842         
      0     0     7722.7941   625                   Cuts: 587     7143         
      0     0     7721.0194   513                   Cuts: 241     7305         
      0     0     7710.3084   451                   Cuts: 138     7389         
      0     0     7706.3131   435                    Cuts: 63     7436         
      0     0     7705.5592   406                    Cuts: 66     7471         
      0     0     7705.5592   386                    Cuts: 45     7499         
      0     0     7705.3170   374                    Cuts: 47     7519         
      0     0     7705.3170   361                    Cuts: 28     7529         
      0     0     7705.3170   358                    Cuts: 18     7532         
      0    38    infeasible                       Impl Bds: 2     7886         
Elapsed time = 10.97 sec. (6909.53 ticks, tree = 0.03 MB, solutions = 0)
    454   267     7312.4050    18                   7699.8288    17861         
    800   398     4492.3521    10                   7699.8288    28075         
*   930+  365                         6158.8541     7699.8288            25.02%
   1488   164     7655.5754    17     7514.3552     7699.8288    43733    2.47%
*  1531   161      integral     0     7636.9989     7699.8288    42994    0.82%

Clique cuts applied:  4
Cover cuts applied:  2
Implied bound cuts applied:  5
Flow cuts applied:  363
Mixed integer rounding cuts applied:  3
Gomory fractional cuts applied:  30

Root node processing (before b&c):
  Real time             =    9.75 sec. (6901.47 ticks)
Parallel b&c, 32 threads:
  Real time             =    5.75 sec. (1028.12 ticks)
  Sync time (average)   =    1.50 sec.
  Wait time (average)   =    0.00 sec.
                          ------------
Total (root+branch&cut) =   15.50 sec. (7929.59 ticks)

Solution pool: 7 solutions saved.

MIP - Integer optimal, tolerance (0.01/1e-06):  Objective =  7.6369989030e+03
Current MIP best bound =  7.6998288482e+03 (gap = 62.8299, 0.82%)
Solution time =   15.53 sec.  Iterations = 45811  Nodes = 1836 (280)
Deterministic time = 7929.75 ticks  (510.58 ticks/sec)

CPLEX> Incumbent solution written to file 'C:\Users\llavin\Desktop\test919\logs\tmph8l7lwg4.cplex.sol'.
CPLEX> NOTE: no warmstart specified for MIP iteration, default behavior is true
NOTE: resolving with all competitive generators using storage-only solution to warmstart
Solving...

Welcome to IBM(R) ILOG(R) CPLEX(R) Interactive Optimizer 12.9.0.0
  with Simplex, Mixed Integer & Barrier Optimizers
5725-A06 5725-A29 5724-Y48 5724-Y49 5724-Y54 5724-Y55 5655-Y21
Copyright IBM Corp. 1988, 2019.  All Rights Reserved.

Type 'help' for a list of available commands.
Type 'help' followed by a command name for more
information on commands.

CPLEX> Logfile 'cplex.log' closed.
Logfile 'C:\Users\llavin\Desktop\test919\logs\tmpupbnzjut.cplex.log' open.
CPLEX> New value for parallel optimization mode: -1
CPLEX> New value for mixed integer optimality gap tolerance: 0.01
CPLEX> New value for integrality tolerance: 1e-09
CPLEX> New value for feasibility tolerance: 0.01
CPLEX> New value for deterministic time limit in ticks: 75000
CPLEX> Problem 'C:\Users\llavin\Desktop\test919\logs\tmpfrd_rrjl.pyomo.lp' read.
Read time = 0.27 sec. (14.81 ticks)
CPLEX> MIP start file 'C:\Users\llavin\Desktop\test919\logs\tmpzxyudwu4.cplex.mst' read.
CPLEX> Problem name         : C:\Users\llavin\Desktop\test919\logs\tmpfrd_rrjl.pyomo.lp
Objective sense      : Maximize
Variables            :   54525  [Nneg: 1,  Box: 22720,  Free: 4464,
                                 Binary: 27340]
Objective nonzeros   :    9676
Linear constraints   :  123205  [Less: 41346,  Greater: 59096,  Equal: 22763]
  Nonzeros           :  291801
  RHS nonzeros       :   67431

Variables            : Min LB: -5000.000        Max UB: 1000000.       
Objective nonzeros   : Min   : 0.01666667       Max   : 786.3833       
Linear constraints   :
  Nonzeros           : Min   : 0.01666667       Max   : 1000000.       
  RHS nonzeros       : Min   : 0.01666667       Max   : 1000000.       
CPLEX> CPXPARAM_Parallel                                -1
CPXPARAM_Simplex_Tolerances_Feasibility          0.01
CPXPARAM_DetTimeLimit                            75000
CPXPARAM_MIP_Tolerances_MIPGap                   0.01
CPXPARAM_MIP_Tolerances_Integrality              1.0000000000000001e-09
Warning:  No solution found from 1 MIP starts.
Retaining values of one MIP start for possible repair.
Tried aggregator 3 times.
MIP Presolve eliminated 88618 rows and 19638 columns.
MIP Presolve added 3386 rows and 0 columns.
MIP Presolve modified 24884 coefficients.
Aggregator did 13010 substitutions.
Reduced MIP has 24963 rows, 21321 columns, and 71209 nonzeros.
Reduced MIP has 8416 binaries, 0 generals, 0 SOSs, and 0 indicators.
Presolve time = 0.30 sec. (174.22 ticks)
Probing fixed 416 vars, tightened 2856 bounds.
Probing time = 1.20 sec. (893.47 ticks)
Tried aggregator 2 times.
MIP Presolve eliminated 937 rows and 834 columns.
MIP Presolve modified 2192 coefficients.
Aggregator did 30 substitutions.
Reduced MIP has 23996 rows, 20457 columns, and 68401 nonzeros.
Reduced MIP has 8000 binaries, 0 generals, 0 SOSs, and 0 indicators.
Presolve time = 0.11 sec. (68.58 ticks)
Probing time = 0.05 sec. (16.66 ticks)
Clique table members: 6274.
MIP emphasis: balance optimality and feasibility.
MIP search method: dynamic search.
Parallel mode: opportunistic, using up to 32 threads.
Root relaxation solution time = 0.59 sec. (433.69 ticks)

        Nodes                                         Cuts/
   Node  Left     Objective  IInf  Best Integer    Best Bound    ItCnt     Gap

      0     0   162157.4890  1754                 162157.4890     7674         
      0     0   158810.2576   695                   Cuts: 713     8072         
      0     0   158013.5345   596                   Cuts: 339     8245         
      0     0   157931.7866   578                   Cuts: 180     8318         
      0     0   156943.6430   546                   Cuts: 122     8385         
      0     0   156751.2339   527                   Cuts: 121     8434         
      0     0   156744.8574   515                    Cuts: 54     8456         
      0     0   156744.8574   511                    Cuts: 67     8467         
      0     0   156744.8574   501                    Cuts: 42     8478         
      0     0   156744.8574   500                    Cuts: 53     8484         
Repair heuristic found nothing.
      0    22   143374.5655   484                    Cuts: 51     9269         
Elapsed time = 12.22 sec. (7234.21 ticks, tree = 0.02 MB, solutions = 0)
    263    78   124007.0837   442                 148428.4116    13625         
    665   303    70607.1270   409                 148428.4116    24259         
   1261   358    44866.8230   349                 148428.4116    25734         
   1875   819    28623.0458   315                 148428.4116    35110         
   2523  1357    17914.3327   285                 148428.4116    43930         
   3345  1643    15321.5431   255                 148428.4116    46336         
   4319  1983   -54526.3410   240                 148428.4116    48946         
   5536  2460    33448.5053   236                 147815.8981    51294         
   6559  3722    25634.9063   265                 147815.8981    54500         
*  9835+ 1652                        34004.7035   147815.8981           334.69%
Elapsed time = 29.09 sec. (10213.21 ticks, tree = 7.98 MB, solutions = 4)
  11780  2486    infeasible          34004.7035    62006.9692    89688   82.35%
  13107   556    43475.1162    61    34004.7035    47203.8947    94965   38.82%
  14689  1607    41088.6176    18    34004.7035    47203.8947   100462   38.82%

GUB cover cuts applied:  1
Clique cuts applied:  3
Cover cuts applied:  20
Implied bound cuts applied:  21
Flow cuts applied:  323
Mixed integer rounding cuts applied:  47
Gomory fractional cuts applied:  85

Root node processing (before b&c):
  Real time             =   10.56 sec. (7204.76 ticks)
Parallel b&c, 32 threads:
  Real time             =   41.84 sec. (11599.13 ticks)
  Sync time (average)   =    2.47 sec.
  Wait time (average)   =    0.25 sec.
                          ------------
Total (root+branch&cut) =   52.41 sec. (18803.89 ticks)

Solution pool: 14 solutions saved.

MIP - Integer optimal, tolerance (0.01/1e-06):  Objective =  4.3657366356e+04
Current MIP best bound =  4.3686540909e+04 (gap = 29.1746, 0.07%)
Solution time =   52.44 sec.  Iterations = 110739  Nodes = 16805 (33)
Deterministic time = 18804.05 ticks  (358.60 ticks/sec)

CPLEX> Incumbent solution written to file 'C:\Users\llavin\Desktop\test919\logs\tmp8vrsytcb.cplex.sol'.
CPLEX> Exporting results... 
